p cnf 29 71
a 28 6 0
e 1 2 3 4 5 7 8 9 10 11 12 13 14 15 16 17 18 19 20 21 22 23 24 25 26 27 29 0
1 -2 -3 0
-1 2 -3 0
1 2 3 0
-1 -2 3 0
4 -5 -6 0
-4 5 -6 0
4 5 6 0
-4 -5 6 0
1 6 -7 0
-1 -6 -7 0
1 -6 7 0
-1 6 7 0
8 3 0
8 7 0
-3 -7 -8 0
11 -9 0
11 10 0
9 -10 -11 0
-12 8 0
-12 -11 0
-8 11 12 0
13 10 -14 0
-13 -10 -14 0
13 -10 14 0
-13 10 14 0
-15 5 0
-15 -1 0
-5 1 15 0
-16 14 0
-16 15 0
-14 -15 16 0
-12 16 -17 0
12 -16 -17 0
-12 -16 17 0
12 16 17 0
-19 -4 0
-19 6 0
4 -6 19 0
18 -19 -20 0
-18 19 -20 0
18 19 20 0
-18 -19 20 0
4 -21 0
-4 -21 0
20 21 -22 0
-20 -21 -22 0
20 -21 22 0
-20 21 22 0
24 -23 0
24 -6 0
23 6 -24 0
25 -22 0
25 24 0
22 -24 -25 0
27 26 0
27 -19 0
-26 19 -27 0
28 -25 0
28 27 0
25 -27 -28 0
17 -28 -29 0
-17 28 -29 0
17 28 29 0
-17 -28 29 0
27 -13 -29 -7 0
-26 6 -14 13 0
-12 16 22 -19 -29 14 0
-20 -5 -3 0
-3 19 6 23 0
14 10 -22 9 -3 0
29 0
